15 35 91
1 3 3
1 4 2
1 5 4
1 7 3
1 8 4
1 9 3
1 10 1
1 12 2
2 4 3
2 7 5
2 12 1
2 13 2
2 14 3
3 7 2
3 10 5
3 13 4
3 15 5
4 9 5
4 13 5
4 15 5
4 11 3
5 6 5
5 8 4
5 15 5
6 9 5
6 12 4
6 13 1
6 15 3
7 9 2
7 14 2
8 10 1
8 13 1
8 15 4
9 14 2
12 14 4
